p wcnf 800 790 401
1 388 173 0
1 481 468 0
1 227 31 0
1 256 765 0
1 283 528 0
1 307 587 0
1 521 27 0
1 772 508 0
1 12 400 0
1 182 56 0
1 236 347 0
1 306 200 0
1 325 322 0
1 414 639 0
1 474 136 0
1 476 213 0
1 515 778 0
1 525 593 0
1 577 452 0
1 583 76 0
1 718 369 0
1 744 276 0
1 756 544 0
1 766 496 0
1 6 676 0
1 8 426 620 0
1 14 500 0
1 19 467 0
1 38 187 0
1 39 647 0
1 86 622 0
1 118 43 0
1 140 413 0
1 291 70 0
1 357 723 0
1 360 688 0
1 375 556 0
1 440 359 0
1 492 799 0
1 509 559 0
1 533 499 0
1 782 704 0
1 596 273 0
1 638 543 0
1 664 731 0
1 694 44 0
1 721 670 0
1 40 585 0
1 116 573 0
1 769 390 0
1 134 300 0
1 162 341 0
1 163 96 0
1 179 225 0
1 189 143 0
1 204 775 0
1 212 526 0
1 798 760 0
1 262 487 0
1 267 68 0
1 348 511 0
1 381 702 0
1 386 758 0
1 445 402 0
1 473 98 0
1 786 221 0
1 477 774 0
1 478 174 0
1 488 345 0
1 493 201 0
1 504 580 0
1 761 210 0
1 512 29 0
1 520 479 0
1 532 288 0
1 597 282 0
1 635 196 0
1 712 404 0
1 1 355 0
1 4 226 0
1 5 37 0
1 7 95 0
1 33 581 0
1 34 531 0
1 36 569 0
1 41 535 0
1 42 636 0
1 45 539 0
1 61 640 0
1 72 505 0
1 103 130 0
1 710 25 578 0
1 109 706 0
1 144 654 0
1 157 630 0
1 749 289 0
1 175 303 0
1 234 729 0
1 263 59 0
1 264 383 0
1 268 792 0
1 271 305 0
1 278 233 0
1 315 609 0
1 329 295 0
1 332 365 0
1 403 722 0
1 425 107 0
1 432 571 0
1 436 10 269 0
1 691 661 0
1 458 683 0
1 732 719 0
1 489 396 0
1 762 763 0
1 541 707 0
1 555 353 0
1 558 331 0
1 565 482 0
1 567 557 0
1 591 259 0
1 604 275 0
1 605 451 0
1 615 692 0
1 627 371 0
1 643 156 0
1 652 274 0
1 665 757 0
1 15 78 0
1 17 518 0
1 28 537 0
1 753 237 0
1 669 111 0
1 48 228 0
1 49 352 0
1 666 343 0
1 770 651 0
1 114 252 0
1 117 759 0
1 146 191 0
1 152 165 0
1 167 172 0
1 170 177 0
1 194 542 0
1 209 599 0
1 214 540 0
1 216 293 0
1 223 349 66 0
1 231 465 0
1 241 491 0
1 258 232 0
1 742 734 0
1 698 57 0
1 280 438 0
1 294 97 0
1 304 93 0
1 346 641 0
1 368 548 0
1 374 506 503 0
1 401 192 0
1 412 50 0
1 417 453 0
1 421 301 0
1 434 764 0
1 637 323 0
1 435 46 0
1 475 366 0
1 510 91 0
1 728 26 0
1 514 752 0
1 519 725 0
1 522 490 0
1 546 373 0
1 551 595 0
1 553 336 0
1 566 21 0
1 568 185 0
1 570 54 0
1 623 169 0
1 589 410 0
1 2 20 0
1 773 220 0
1 714 574 0
1 673 11 0
1 711 131 0
1 82 160 0
1 662 457 0
1 119 470 0
1 155 671 0
1 158 705 0
1 747 424 0
1 195 176 0
1 202 781 0
1 235 115 0
1 239 245 0
1 240 370 0
1 246 444 0
1 250 363 0
1 603 497 0
1 279 646 0
1 796 418 0
1 767 208 0
1 297 614 0
1 310 350 0
1 695 229 0
1 351 313 0
1 361 700 0
1 364 147 0
1 372 83 0
1 738 154 0
1 392 164 0
1 394 22 0
1 405 89 0
1 408 437 0
1 724 561 471 0
1 449 299 0
1 450 74 0
1 727 382 0
1 726 644 0
1 538 398 0
1 685 335 0
1 545 563 0
1 579 524 0
1 626 549 730 0
1 681 484 0
1 572 530 0
1 619 52 0
1 88 376 0
1 99 800 0
1 101 776 0
1 142 655 0
1 145 564 0
1 153 190 0
1 193 314 0
1 197 550 0
1 199 560 0
1 682 554 0
1 745 84 0
1 205 203 0
1 211 409 0
1 779 73 0
1 244 433 0
1 251 687 0
1 260 248 0
1 699 387 0
1 317 85 0
1 324 51 0
1 327 284 0
1 334 110 0
1 339 611 0
1 675 137 0
1 642 791 0
1 378 677 0
1 389 302 0
1 693 30 0
1 441 629 0
1 446 684 0
1 462 16 0
1 466 330 0
1 483 18 768 0
1 633 316 0
1 513 198 0
1 631 105 0
1 794 507 0
1 527 178 0
1 754 47 0
1 616 391 0
1 534 447 0
1 112 55 0
1 126 680 0
1 161 420 0
1 610 102 0
1 181 529 0
1 218 562 0
1 222 672 0
1 243 586 0
1 701 75 0
1 318 674 0
1 328 485 0
1 547 678 0
1 621 667 0
1 399 755 0
1 588 618 0
1 423 92 0
1 439 150 0
1 516 255 0
1 736 296 0
1 495 24 443 0
1 32 650 0
1 69 463 0
1 108 298 0
1 613 576 0
1 141 253 0
1 171 415 0
1 183 277 0
1 746 696 0
1 790 645 0
1 254 703 0
1 257 784 0
1 649 385 0
1 308 206 0
1 312 720 0
1 739 207 0
1 617 180 788 0
1 309 716 0
1 431 407 0
1 455 668 0
1 60 713 648 0
1 606 139 0
1 344 272 0
1 777 735 0
1 337 552 0
1 454 607 0
1 737 733 0
1 362 217 0
1 486 125 135 0
1 456 319 0
1 149 219 0
1 166 686 0
1 690 751 0
1 406 795 0
1 442 601 0
1 660 397 0
1 77 338 0
1 582 71 0
1 448 230 0
1 523 783 0
1 663 290 0
1 127 428 0
1 472 53 0
1 188 247 0
1 658 608 0
1 292 380 0
1 94 100 0
1 741 64 0
1 461 634 0
1 104 23 0
1 789 787 0
1 358 90 0
1 266 265 0
1 326 106 0
1 797 132 0
1 320 128 0
1 215 679 0
1 281 594 0
1 367 785 0
1 743 311 0
1 419 590 0
1 427 242 0
1 575 67 0
1 151 286 0
1 168 249 0
1 356 592 0
1 598 122 0
1 632 464 0
1 120 536 0
1 625 771 0
1 129 628 0
1 498 113 0
1 429 0
1 270 87 0
1 159 494 0
1 653 748 0
1 321 697 0
1 480 416 0
1 238 584 0
1 148 333 0
1 411 186 0
1 13 659 0
1 80 0
1 124 422 0
1 342 138 0
1 793 740 0
1 430 81 0
1 261 393 0
1 184 384 0
1 459 612 0
1 395 717 0
1 657 63 0
1 469 340 0
1 600 354 0
1 780 285 0
1 133 715 0
1 65 35 0
1 379 0
1 709 121 0
1 708 656 0
1 62 224 0
1 517 3 0
1 689 0
1 624 0
1 58 0
1 377 460 0
1 501 0
1 602 0
1 79 0
1 502 0
1 750 0
1 9 0
1 287 0
1 123 0
401 -1 -27 0
401 -1 -225 0
401 -1 -323 0
401 -1 -355 0
401 -1 -655 0
401 -1 -707 0
401 -1 -764 0
401 -2 -20 0
401 -2 -104 0
401 -2 -272 0
401 -2 -287 0
401 -2 -302 0
401 -2 -321 0
401 -2 -528 0
401 -2 -676 0
401 -2 -780 0
401 -3 -65 0
401 -3 -79 0
401 -3 -90 0
401 -3 -97 0
401 -3 -136 0
401 -3 -141 0
401 -3 -250 0
401 -3 -260 0
401 -3 -312 0
401 -3 -431 0
401 -3 -461 0
401 -3 -475 0
401 -3 -517 0
401 -3 -642 0
401 -3 -653 0
401 -3 -675 0
401 -3 -714 0
401 -4 -18 0
401 -4 -190 0
401 -4 -208 0
401 -4 -220 0
401 -4 -226 0
401 -4 -252 0
401 -4 -507 0
401 -5 -37 0
401 -5 -64 0
401 -5 -424 0
401 -5 -620 0
401 -5 -639 0
401 -5 -640 0
401 -5 -656 0
401 -6 -221 0
401 -6 -340 0
401 -6 -467 0
401 -6 -585 0
401 -6 -676 0
401 -7 -95 0
401 -7 -461 0
401 -7 -496 0
401 -7 -543 0
401 -7 -564 0
401 -7 -741 0
401 -7 -778 0
401 -8 -111 0
401 -8 -426 0
401 -8 -594 0
401 -8 -620 0
401 -8 -639 0
401 -9 -69 0
401 -9 -114 0
401 -9 -231 0
401 -9 -244 0
401 -9 -367 0
401 -9 -419 0
401 -9 -446 0
401 -9 -588 0
401 -9 -604 0
401 -9 -765 0
401 -9 -773 0
401 -9 -777 0
401 -10 -31 0
401 -10 -261 0
401 -10 -269 0
401 -10 -290 0
401 -10 -399 0
401 -10 -436 0
401 -10 -499 0
401 -10 -684 0
401 -10 -700 0
401 -10 -707 0
401 -11 -294 0
401 -11 -370 0
401 -11 -448 0
401 -11 -506 0
401 -11 -582 0
401 -11 -601 0
401 -11 -671 0
401 -11 -673 0
401 -11 -795 0
401 -12 -58 0
401 -12 -400 0
401 -12 -487 0
401 -12 -490 0
401 -13 -73 0
401 -13 -169 0
401 -13 -185 0
401 -13 -246 0
401 -13 -290 0
401 -13 -326 0
401 -13 -353 0
401 -13 -534 0
401 -13 -546 0
401 -13 -659 0
401 -13 -789 0
401 -14 -287 0
401 -14 -300 0
401 -14 -500 0
401 -14 -528 0
401 -14 -676 0
401 -15 -78 0
401 -15 -110 0
401 -15 -322 0
401 -15 -396 0
401 -15 -544 0
401 -15 -674 0
401 -15 -751 0
401 -15 -795 0
401 -16 -50 0
401 -16 -150 0
401 -16 -164 0
401 -16 -223 0
401 -16 -367 0
401 -16 -455 0
401 -16 -462 0
401 -16 -662 0
401 -16 -690 0
401 -16 -793 0
401 -17 -77 0
401 -17 -385 0
401 -17 -390 0
401 -17 -485 0
401 -17 -518 0
401 -17 -624 0
401 -17 -720 0
401 -17 -725 0
401 -18 -33 0
401 -18 -140 0
401 -18 -142 0
401 -18 -483 0
401 -18 -623 0
401 -18 -633 0
401 -18 -768 0
401 -18 -773 0
401 -19 -174 0
401 -19 -340 0
401 -19 -467 0
401 -19 -468 0
401 -19 -585 0
401 -20 -47 0
401 -20 -285 0
401 -20 -329 0
401 -20 -344 0
401 -20 -389 0
401 -20 -458 0
401 -20 -608 0
401 -20 -673 0
401 -20 -697 0
401 -20 -711 0
401 -21 -98 0
401 -21 -105 0
401 -21 -135 0
401 -21 -235 0
401 -21 -385 0
401 -21 -419 0
401 -21 -566 0
401 -21 -743 0
401 -21 -798 0
401 -22 -83 0
401 -22 -112 0
401 -22 -208 0
401 -22 -240 0
401 -22 -292 0
401 -22 -304 0
401 -22 -394 0
401 -22 -396 0
401 -22 -545 0
401 -22 -686 0
401 -22 -727 0
401 -22 -751 0
401 -23 -104 0
401 -23 -222 0
401 -23 -251 0
401 -23 -266 0
401 -23 -403 0
401 -23 -466 0
401 -23 -479 0
401 -23 -578 0
401 -23 -612 0
401 -23 -633 0
401 -23 -681 0
401 -23 -685 0
401 -23 -745 0
401 -24 -49 0
401 -24 -81 0
401 -24 -102 0
401 -24 -129 0
401 -24 -199 0
401 -24 -233 0
401 -24 -297 0
401 -24 -378 0
401 -24 -443 0
401 -24 -495 0
401 -24 -506 0
401 -24 -617 0
401 -24 -663 0
401 -24 -664 0
401 -24 -680 0
401 -25 -51 0
401 -25 -106 0
401 -25 -129 0
401 -25 -250 0
401 -25 -578 0
401 -25 -677 0
401 -25 -710 0
401 -25 -719 0
401 -25 -768 0
401 -25 -771 0
401 -26 -34 0
401 -26 -67 0
401 -26 -149 0
401 -26 -211 0
401 -26 -286 0
401 -26 -297 0
401 -26 -364 0
401 -26 -591 0
401 -26 -649 0
401 -26 -693 0
401 -26 -695 0
401 -26 -728 0
401 -26 -770 0
401 -27 -81 0
401 -27 -92 0
401 -27 -152 0
401 -27 -275 0
401 -27 -340 0
401 -27 -341 0
401 -27 -357 0
401 -27 -379 0
401 -27 -521 0
401 -27 -546 0
401 -27 -629 0
401 -27 -679 0
401 -27 -689 0
401 -27 -709 0
401 -27 -718 0
401 -28 -123 0
401 -28 -287 0
401 -28 -303 0
401 -28 -313 0
401 -28 -343 0
401 -28 -384 0
401 -28 -537 0
401 -28 -733 0
401 -29 -42 0
401 -29 -77 0
401 -29 -157 0
401 -29 -279 0
401 -29 -385 0
401 -29 -402 0
401 -29 -485 0
401 -29 -512 0
401 -29 -518 0
401 -30 -67 0
401 -30 -149 0
401 -30 -211 0
401 -30 -274 0
401 -30 -286 0
401 -30 -456 0
401 -30 -590 0
401 -30 -649 0
401 -30 -693 0
401 -30 -728 0
401 -30 -770 0
401 -31 -227 0
401 -31 -301 0
401 -31 -376 0
401 -31 -541 0
401 -31 -544 0
401 -31 -680 0
401 -31 -703 0
401 -32 -79 0
401 -32 -122 0
401 -32 -186 0
401 -32 -213 0
401 -32 -224 0
401 -32 -242 0
401 -32 -460 0
401 -32 -602 0
401 -32 -650 0
401 -32 -678 0
401 -32 -717 0
401 -32 -735 0
401 -33 -124 0
401 -33 -233 0
401 -33 -316 0
401 -33 -349 0
401 -33 -413 0
401 -33 -581 0
401 -34 -259 0
401 -34 -400 0
401 -34 -427 0
401 -34 -531 0
401 -34 -614 0
401 -34 -674 0
401 -35 -65 0
401 -35 -141 0
401 -35 -191 0
401 -35 -311 0
401 -35 -312 0
401 -35 -333 0
401 -35 -354 0
401 -35 -431 0
401 -35 -461 0
401 -35 -653 0
401 -35 -675 0
401 -35 -714 0
401 -36 -73 0
401 -36 -362 0
401 -36 -391 0
401 -36 -569 0
401 -36 -622 0
401 -36 -654 0
401 -36 -771 0
401 -37 -61 0
401 -37 -210 0
401 -37 -318 0
401 -37 -588 0
401 -37 -644 0
401 -37 -708 0
401 -37 -747 0
401 -37 -792 0
401 -38 -187 0
401 -38 -196 0
401 -38 -288 0
401 -38 -322 0
401 -38 -428 0
401 -39 -87 0
401 -39 -174 0
401 -39 -276 0
401 -39 -468 0
401 -39 -647 0
401 -40 -74 0
401 -40 -89 0
401 -40 -340 0
401 -40 -467 0
401 -40 -554 0
401 -40 -585 0
401 -41 -259 0
401 -41 -284 0
401 -41 -293 0
401 -41 -300 0
401 -41 -402 0
401 -41 -535 0
401 -41 -763 0
401 -42 -198 0
401 -42 -380 0
401 -42 -552 0
401 -42 -636 0
401 -42 -645 0
401 -42 -654 0
401 -43 -118 0
401 -43 -159 0
401 -43 -177 0
401 -43 -251 0
401 -43 -259 0
401 -43 -356 0
401 -43 -533 0
401 -43 -535 0
401 -43 -553 0
401 -43 -763 0
401 -44 -463 0
401 -44 -593 0
401 -44 -694 0
401 -44 -729 0
401 -44 -753 0
401 -44 -754 0
401 -45 -341 0
401 -45 -359 0
401 -45 -496 0
401 -45 -501 0
401 -45 -539 0
401 -45 -748 0
401 -45 -778 0
